(set-info :source |printed by MathSAT|)
(declare-fun ldv_mutex () (_ BitVec 32))

*:
(assert (let ((.def_16506 (= ldv_mutex (_ bv1 32)))).def_16506))
(assert (let ((.def_16511 (= ldv_mutex (_ bv2 32)))).def_16511))

